[runlim] version:		1.10
[runlim] time limit:		311040000 seconds
[runlim] real time limit:	900 seconds
[runlim] space limit:		6000 MB
[runlim] argv[0]:		python3
[runlim] argv[1]:		cp.py
[runlim] argv[2]:		scen05
[runlim] start:			Sun Jan 18 16:08:01 2026
[runlim] main pid:		476
[runlim] sample:		10.0 time, 10.0 real, 565.6 MB
[runlim] sample:		19.6 time, 20.0 real, 1419.7 MB
[runlim] sample:		29.5 time, 30.0 real, 1914.8 MB
[runlim] sample:		39.5 time, 39.5 real, 3706.7 MB
Building CP model...
Build time: 12.99s
Solving CP Optimizer...
 ! --------------------------------------------------- CP Optimizer 22.1.1.0 --
 ! Minimization problem - 15816 variables, 1645516 constraints
 ! Presolve      : 1645918 extractables eliminated
 ! LogVerbosity         = Terse
 ! Initial process time : 17.60s (17.53s extraction + 0.08s propagation)
 !  . Log search space  : 15816.0 (before), 15816.0 (after)
 !  . Memory usage      : 213.6 MB (before), 213.6 MB (after)
 ! Using parallel search with 12 workers.
 ! ----------------------------------------------------------------------------
 !          Best Branches  Non-fixed    W       Branch decision
                        0      15816                 -
 + New bound is 0
[runlim] sample:		59.9 time, 49.5 real, 4795.1 MB
[runlim] end:			Sun Jan 18 16:08:50 2026
[runlim] status:		out of memory
[runlim] result:		3
[runlim] children:		366
[runlim] real:			49.61 seconds
[runlim] time:			59.90 seconds
[runlim] space:			6018.3 MB
[runlim] samples:		500
